Problem:    utak_4
Rows:       7
Columns:    9 (9 integer, 9 binary)
Non-zeros:  25
Status:     INTEGER OPTIMAL
Objective:  cost = 5 (MINimum)

   No.   Row name        Activity     Lower bound   Upper bound
------ ------------    ------------- ------------- -------------
     1 start                       1             1             = 
     2 B                           0            -0             = 
     3 C                           0            -0             = 
     4 D                           0            -0             = 
     5 E                           0            -0             = 
     6 F                           1             1             = 
     7 cost                        5                             

   No. Column name       Activity     Lower bound   Upper bound
------ ------------    ------------- ------------- -------------
     1 ab           *              0             0             1 
     2 ad           *              1             0             1 
     3 ac           *              0             0             1 
     4 bf           *              0             0             1 
     5 bc           *              0             0             1 
     6 be           *              0             0             1 
     7 ce           *              0             0             1 
     8 df           *              1             0             1 
     9 ed           *              0             0             1 

Integer feasibility conditions:

KKT.PE: max.abs.err = 0.00e+00 on row 0
        max.rel.err = 0.00e+00 on row 0
        High quality

KKT.PB: max.abs.err = 0.00e+00 on row 0
        max.rel.err = 0.00e+00 on row 0
        High quality

End of output
